30
1 0 22
2 0 57
2 1 20
3 0 21
3 1 60
3 2 33
4 0 4
4 1 28
4 2 52
4 3 69
5 0 40
5 1 1
5 2 38
5 3 22
5 4 1
6 0 72
6 1 26
6 2 3
6 3 26
6 4 56
6 5 79
7 0 35
7 1 1
7 2 2
7 3 17
7 4 53
7 5 24
7 6 63
8 0 39
8 1 53
8 2 2
8 3 66
8 4 77
8 5 5
8 6 80
8 7 59
9 0 34
9 1 70
9 2 25
9 3 40
9 4 26
9 5 76
9 6 17
9 7 1
9 8 26
10 0 24
10 1 59
10 2 64
10 3 78
10 4 56
10 5 8
10 6 44
10 7 22
10 8 34
10 9 40
11 0 7
11 1 29
11 2 60
11 3 3
11 4 8
11 5 52
11 6 52
11 7 52
11 8 46
11 9 75
11 10 78
12 0 38
12 1 74
12 2 44
12 3 67
12 4 75
12 5 10
12 6 30
12 7 12
12 8 36
12 9 35
12 10 33
12 11 34
13 0 46
13 1 30
13 2 18
13 3 25
13 4 7
13 5 19
13 6 28
13 7 46
13 8 15
13 9 21
13 10 46
13 11 27
13 12 62
14 0 2
14 1 56
14 2 67
14 3 59
14 4 74
14 5 9
14 6 18
14 7 29
14 8 67
14 9 24
14 10 63
14 11 53
14 12 6
14 13 14
15 0 66
15 1 75
15 2 29
15 3 70
15 4 18
15 5 77
15 6 50
15 7 20
15 8 10
15 9 59
15 10 37
15 11 23
15 12 33
15 13 40
15 14 72
16 0 32
16 1 78
16 2 47
16 3 54
16 4 70
16 5 64
16 6 18
16 7 2
16 8 20
16 9 39
16 10 38
16 11 7
16 12 39
16 13 58
16 14 57
16 15 76
17 0 63
17 1 58
17 2 50
17 3 15
17 4 68
17 5 60
17 6 35
17 7 46
17 8 58
17 9 16
17 10 61
17 11 75
17 12 41
17 13 73
17 14 45
17 15 49
17 16 60
18 0 47
18 1 69
18 2 73
18 3 3
18 4 44
18 5 30
18 6 41
18 7 27
18 8 18
18 9 4
18 10 59
18 11 77
18 12 7
18 13 17
18 14 5
18 15 28
18 16 72
18 17 80
19 0 36
19 1 67
19 2 38
19 3 4
19 4 13
19 5 23
19 6 33
19 7 46
19 8 22
19 9 11
19 10 35
19 11 48
19 12 11
19 13 26
19 14 26
19 15 65
19 16 18
19 17 15
19 18 37
20 0 10
20 1 29
20 2 77
20 3 52
20 4 18
20 5 15
20 6 80
20 7 52
20 8 47
20 9 29
20 10 37
20 11 48
20 12 45
20 13 66
20 14 11
20 15 13
20 16 59
20 17 14
20 18 70
20 19 21
21 0 51
21 1 76
21 2 35
21 3 51
21 4 29
21 5 25
21 6 2
21 7 39
21 8 63
21 9 55
21 10 62
21 11 16
21 12 41
21 13 70
21 14 65
21 15 46
21 16 36
21 17 13
21 18 57
21 19 33
21 20 80
22 0 21
22 1 51
22 2 11
22 3 14
22 4 78
22 5 19
22 6 64
22 7 62
22 8 11
22 9 18
22 10 68
22 11 74
22 12 9
22 13 19
22 14 27
22 15 39
22 16 74
22 17 25
22 18 35
22 19 63
22 20 61
22 21 13
23 0 44
23 1 9
23 2 42
23 3 77
23 4 29
23 5 65
23 6 42
23 7 39
23 8 41
23 9 57
23 10 51
23 11 56
23 12 70
23 13 40
23 14 36
23 15 18
23 16 39
23 17 9
23 18 17
23 19 13
23 20 62
23 21 25
23 22 47
24 0 24
24 1 39
24 2 76
24 3 50
24 4 55
24 5 38
24 6 59
24 7 27
24 8 2
24 9 32
24 10 33
24 11 72
24 12 32
24 13 63
24 14 42
24 15 20
24 16 26
24 17 12
24 18 38
24 19 52
24 20 13
24 21 5
24 22 32
24 23 51
25 0 15
25 1 29
25 2 71
25 3 9
25 4 9
25 5 80
25 6 76
25 7 58
25 8 61
25 9 80
25 10 36
25 11 67
25 12 4
25 13 62
25 14 3
25 15 43
25 16 58
25 17 48
25 18 19
25 19 46
25 20 25
25 21 80
25 22 25
25 23 24
25 24 26
26 0 39
26 1 3
26 2 59
26 3 52
26 4 63
26 5 27
26 6 52
26 7 51
26 8 40
26 9 57
26 10 2
26 11 36
26 12 63
26 13 56
26 14 26
26 15 41
26 16 60
26 17 66
26 18 56
26 19 9
26 20 25
26 21 67
26 22 52
26 23 61
26 24 73
26 25 11
27 0 5
27 1 49
27 2 29
27 3 65
27 4 42
27 5 3
27 6 42
27 7 35
27 8 36
27 9 24
27 10 68
27 11 64
27 12 16
27 13 71
27 14 62
27 15 14
27 16 38
27 17 74
27 18 49
27 19 45
27 20 43
27 21 48
27 22 30
27 23 35
27 24 73
27 25 63
27 26 56
28 0 42
28 1 6
28 2 11
28 3 69
28 4 65
28 5 52
28 6 19
28 7 34
28 8 76
28 9 49
28 10 70
28 11 5
28 12 38
28 13 29
28 14 15
28 15 55
28 16 55
28 17 45
28 18 41
28 19 70
28 20 14
28 21 24
28 22 4
28 23 5
28 24 4
28 25 61
28 26 55
28 27 22
29 0 49
29 1 56
29 2 53
29 3 13
29 4 10
29 5 13
29 6 64
29 7 56
29 8 40
29 9 32
29 10 51
29 11 62
29 12 32
29 13 74
29 14 44
29 15 43
29 16 6
29 17 4
29 18 58
29 19 22
29 20 58
29 21 34
29 22 53
29 23 5
29 24 32
29 25 37
29 26 42
29 27 58
29 28 45
